17457.0
6,23,37,44,53,56,84,109,137,147,159,198,211,216,236,245,249,262,269,317,347,399,419,421,426,446,463,469,473,479,493,539,545,568,573,599,603,643,657,658,669,708,726,732,736,737,743,770,775,803,827,830,845,917,945,967,979,989,992,1048,1099,1117,1129,1133,1143,1158,1168,1199,1204,1248,1252,1260,1300,1322,1333,1341,1361,1369,1383,1394,1400,1413,1419,1431,1457,1485,1489,1507,1515,1544,1548,1549,1563,1604,1638,1647,1662,1667,1690,1692,1709,1729,1731,1756,1770,1799,1800,1861,1900,1904,1948,1953,1954,1991,1997
